100
120
98
97
97
97
97
94
93
93
93
92
91
91
90
89
89
88
87
87
87
85
84
84
83
83
82
81
81
81
81
78
76
76
75
75
74
73
70
69
68
68
68
66
65
64
64
63
59
58
57
56
56
52
51
51
50
49
48
48
47
47
46
46
45
45
44
44
43
43
42
40
40
40
37
33
31
30
29
28
26
25
25
24
19
19
19
19
17
16
16
15
15
14
13
12
12
7
4
2
1
1
